11
2147483647 75 39 59 90 92 68 33 63 82 45 
75 2147483647 73 16 61 98 25 62 26 29 39 
39 73 2147483647 31 20 54 22 72 69 96 17 
59 16 31 2147483647 25 1 48 24 59 81 18 
90 61 20 25 2147483647 66 11 95 59 33 70 
92 98 54 1 66 2147483647 73 86 100 78 68 
68 25 22 48 11 73 2147483647 54 29 96 5 
33 62 72 24 95 86 54 2147483647 50 58 21 
63 26 69 59 59 100 29 50 2147483647 22 79 
82 29 96 81 33 78 96 58 22 2147483647 24 
45 39 17 18 70 68 5 21 79 24 2147483647 
